NAME: 0802
COMMENT: 7 locations in Saratov (one of them is a store where goods are delivered from)
DIMENSION: 7
EDGE_WEIGHT_TYPE: EXPLICIT
EDGE_WEIGHT_FORMAT: UPPER_ROW 
DISPLAY_DATA_TYPE: TWOD_DISPLAY
EDGE_WEIGHT_SECTION
12 8 7 12 14 14
5 10 11 18 6
8 10 17 8
8 9 12
17 12
20
DISPLAY_DATA_SECTION
1 51.50036805 45.95278283698718
2 51.51758145  45.9716459
3 51.51398345  45.96988351148967
4 51.51086385  45.94118477014366
5 51.5182467  45.939122689358655
6 51.507293649999994  45.90228052462905
7 51.5222031  45.95791157322192
EOF
